SDVRP instances/custom_instances/p01_7_splitx10_0.vrp
NAME:p01_7_splitx10_
BEST_KNOWN: 0
COMMENT: 0
DIMENSION: 243
CAPACITY: 1600
EDGE_WEIGHT_FORMAT: FUNCTION
EDGE_WEIGHT_TYPE: EXACT_2D
NODE_COORD_SECTION
1 0.00000 0.00000
2 -34 -15
3 -34 -15
4 -34 -15
5 -34 -15
6 -34 -15
7 -25 45
8 -25 45
9 -25 45
10 -25 45
11 -25 45
12 34 1
13 34 1
14 34 1
15 28 -33
16 28 -33
17 28 -33
18 28 -33
19 -41 -43
20 -41 -43
21 -41 -43
22 -41 -43
23 -41 -43
24 -41 -43
25 -39 18
26 -39 18
27 -39 18
28 -39 18
29 -39 18
30 -39 18
31 -33 -38
32 -33 -38
33 -35 43
34 -35 43
35 -35 43
36 -35 43
37 -35 43
38 -1 8
39 -1 8
40 -1 8
41 -25 27
42 -25 27
43 -25 27
44 -25 27
45 -25 27
46 18 -3
47 18 -3
48 18 -3
49 18 -3
50 18 -3
51 -43 4
52 -43 4
53 -43 4
54 -43 4
55 -43 4
56 28 27
57 28 27
58 28 27
59 28 27
60 28 27
61 28 27
62 28 27
63 -11 0
64 -11 0
65 -11 0
66 41 49
67 41 49
68 41 49
69 41 49
70 41 49
71 -11 18
72 -11 18
73 -11 18
74 9 -37
75 9 -37
76 9 -37
77 9 -37
78 9 -37
79 9 -37
80 9 -37
81 9 -37
82 29 -25
83 29 -25
84 1 -2
85 1 -2
86 1 -2
87 -11 -14
88 -11 -14
89 -11 -14
90 -11 -14
91 -11 -14
92 -11 -14
93 -11 -14
94 -11 -14
95 -3 -19
96 -3 -19
97 -3 -19
98 -3 -19
99 -3 -19
100 -3 -19
101 39 31
102 39 31
103 39 31
104 39 31
105 39 31
106 39 31
107 22 -46
108 22 -46
109 22 -46
110 22 -46
111 49 -38
112 49 -38
113 49 -38
114 49 -38
115 49 -38
116 -6 -40
117 -6 -40
118 -6 -40
119 -6 -40
120 -6 -40
121 -4 36
122 -4 36
123 -4 36
124 -4 36
125 -15 50
126 -15 50
127 -15 50
128 -15 50
129 -15 50
130 -43 28
131 -43 28
132 -43 28
133 -43 28
134 -11 1
135 -11 1
136 -11 1
137 -11 1
138 -11 1
139 -23 -6
140 -23 -6
141 -23 -6
142 -23 -6
143 -23 -6
144 -23 -6
145 -23 -6
146 -21 -7
147 -21 -7
148 -21 -7
149 -21 -7
150 -21 -7
151 -21 -7
152 5 1
153 5 1
154 5 1
155 2 18
156 2 18
157 2 18
158 2 18
159 2 18
160 2 18
161 -5 -14
162 -5 -14
163 -5 -14
164 -5 -14
165 -5 -14
166 -5 -14
167 8 5
168 8 5
169 8 5
170 8 5
171 8 5
172 46 -9
173 46 -9
174 46 -9
175 -42 21
176 -42 21
177 -42 21
178 -7 -23
179 32 -10
180 32 -10
181 32 -10
182 32 -10
183 32 -10
184 32 -10
185 -36 33
186 -36 33
187 -36 33
188 -36 33
189 -36 33
190 -36 33
191 -36 33
192 -3 -44
193 -3 -44
194 -3 -44
195 -3 -44
196 -3 -44
197 16 -21
198 16 -21
199 16 -21
200 16 -21
201 16 -21
202 49 34
203 49 34
204 49 34
205 49 34
206 49 34
207 49 34
208 -45 -28
209 -45 -28
210 -45 -28
211 -45 -28
212 -43 -32
213 -43 -32
214 -43 -32
215 -43 -32
216 -43 -32
217 -43 -32
218 -43 -32
219 -20 39
220 -20 39
221 -20 39
222 -20 39
223 -20 39
224 -20 39
225 45 1
226 45 1
227 45 1
228 45 1
229 45 1
230 45 1
231 30 -26
232 30 -26
233 30 -26
234 35 -50
235 35 -50
236 35 -50
237 35 -50
238 35 -50
239 35 -50
240 -43 -13
241 -43 -13
242 -43 -13
243 -43 -13
DEMAND_SECTION
1 0
2 160
3 80
4 16
5 16
6 8
7 320
8 320
9 16
10 16
11 8
12 320
13 16
14 4
15 320
16 16
17 16
18 8
19 320
20 160
21 80
22 16
23 16
24 8
25 320
26 80
27 16
28 16
29 16
30 12
31 320
32 160
33 160
34 80
35 16
36 16
37 8
38 320
39 160
40 80
41 320
42 16
43 16
44 16
45 2
46 320
47 160
48 80
49 16
50 14
51 320
52 16
53 16
54 16
55 2
56 320
57 320
58 16
59 16
60 16
61 16
62 6
63 160
64 80
65 10
66 160
67 16
68 16
69 16
70 12
71 320
72 320
73 80
74 320
75 320
76 80
77 16
78 16
79 16
80 16
81 6
82 320
83 80
84 320
85 160
86 10
87 320
88 320
89 80
90 16
91 16
92 16
93 16
94 6
95 160
96 80
97 16
98 16
99 16
100 12
101 320
102 80
103 16
104 16
105 16
106 12
107 320
108 160
109 16
110 14
111 320
112 160
113 80
114 16
115 14
116 320
117 160
118 80
119 16
120 14
121 320
122 320
123 16
124 4
125 320
126 320
127 80
128 16
129 14
130 320
131 16
132 16
133 8
134 160
135 16
136 16
137 16
138 12
139 320
140 160
141 80
142 16
143 16
144 16
145 12
146 160
147 16
148 16
149 16
150 16
151 6
152 320
153 16
154 4
155 160
156 16
157 16
158 16
159 16
160 6
161 320
162 16
163 16
164 16
165 16
166 6
167 320
168 160
169 80
170 16
171 4
172 320
173 320
174 10
175 160
176 80
177 10
178 320
179 320
180 80
181 16
182 16
183 16
184 12
185 320
186 160
187 80
188 16
189 16
190 16
191 12
192 160
193 80
194 16
195 16
196 8
197 320
198 160
199 16
200 16
201 8
202 320
203 320
204 16
205 16
206 16
207 12
208 320
209 160
210 80
211 10
212 320
213 80
214 16
215 16
216 16
217 16
218 6
219 320
220 320
221 16
222 16
223 16
224 12
225 320
226 160
227 16
228 16
229 16
230 12
231 320
232 160
233 10
234 320
235 320
236 80
237 16
238 16
239 8
240 320
241 320
242 16
243 14
DEPOT_SECTION
1
-1
EOF