SDVRP instances/custom_instances/p01_7_splitx10_0.sol
242 -5 2 3 4 1 207 210 208 209 239 240 242 241 147 146 150 148 -7 10 6 9 8 124 127 128 125 126 -25 26 29 24 28 27 129 132 130 131 174 175 176 54 53 50 52 51 133 -31 30 20 23 19 22 18 21 216 214 213 211 215 212 217 -38 39 37 70 72 71 -42 40 44 43 41 33 36 35 32 34 190 189 188 187 186 184 185 135 137 136 134 62 63 64 -46 13 12 11 226 228 225 229 227 224 101 100 103 104 105 102 59 58 61 60 -48 47 49 45 172 173 171 183 178 182 180 181 179 -57 56 55 67 66 69 65 68 203 204 201 206 205 202 -81 82 232 230 17 15 14 16 107 108 109 106 -84 85 83 151 153 152 169 170 167 166 168 -87 91 88 92 93 90 89 86 145 149 139 141 138 140 143 142 144 -98 195 193 192 191 194 116 115 117 118 119 177 163 165 161 162 160 164 -99 96 97 95 94 80 77 79 75 74 76 73 78 199 198 196 197 200 -157 159 154 155 158 156 120 123 122 121 218 219 222 223 221 220 -231 110 111 113 114 112 237 238 234 233 236 235 0 





OBJ=
1602.670
BEST_KNOWN=
0.000